# SCIP version 2.1.1.6

# solution that is used for fixing values ('l'p relaxation, 'n'lp relaxation)
# [type: char, range: {nl}, default: l]
heuristics/rens/startsol = n

# feasibility tolerance factor; for checking the feasibility of the best solution
# [type: real, advanced: FALSE, range: [0,1.79769313486232e+308], default: 1]
numerics/checkfeastolfac = 10
